(set-logic BV) (define-fun origCir ((n119 Bool) (n216 Bool) (n215 Bool) (n167 Bool) (n226 Bool) (n225 Bool)) Bool (and (and (not n226) (not (xor (and (not n215) (not n167)) (not (and (not n216) (not n119)))))) n225)) (synth-fun skel ((n119 Bool) (n216 Bool) (n215 Bool) (n167 Bool) (n226 Bool) (n225 Bool)) Bool) (declare-var n119 Bool) (declare-var n216 Bool) (declare-var n215 Bool) (declare-var n167 Bool) (declare-var n226 Bool) (declare-var n225 Bool) (constraint (= (origCir n119 n216 n215 n167 n226 n225) (skel n119 n216 n215 n167 n226 n225))) (check-synth)
